100
30
6
30
23
14
30
2
31
11
22
4
8
12
15
28
11
19
5
6
7
19
5
3
6
28
11
31
9
9
24
11
6
12
1
13
6
12
10
11
1
12
16
28
8
21
5
1
3
18
10
17
20
2
30
22
23
3
24
24
31
16
5
8
10
16
1
32
32
25
20
22
10
28
20
32
18
9
3
20
31
24
18
28
18
15
8
19
4
8
3
23
3
29
16
31
30
29
3
12
25
2